(set-info :smt-lib-version 2.6)
(set-logic QF_S)
(set-info :source |
Generated by: Murphy Berzish, Mitja Kulczynski, Federico Mora, Florin Manea, Joel Day, Dirk Nowotka, Vijay Ganesh, Zhengyang Lu
Generated on: 2020-10-01
Description: Translated from a collection of real-world regex queries, AutomataArk, collected by Loris D’Antoni and Fang Wang: https://github.com/lorisdanto/automatark
Application: Evaluate solvers on real-world regex queries
Target solver: Z3str3RE, CVC4, OSTRICH, Z3seq, Z3str3, Z3-Trau
Publications: Berzish, M., Kulczynski, M., Mora, F., Manea, F., Day, J. D., Nowotka, D., & Ganesh, V. (2021, July). An SMT solver for regular expressions and linear arithmetic over string length. In CAV 2021.
|)
(set-info :license "https://creativecommons.org/licenses/by/4.0/")
(set-info :category "industrial")
(set-info :status sat)

(declare-const X String)
(assert (not (str.in_re X (re.++ ((_ re.loop 1 1) (re.union (str.to_re "A") (str.to_re "B") (str.to_re "C") (str.to_re "E") (str.to_re "G") (str.to_re "H") (str.to_re "J") (str.to_re "K") (str.to_re "L") (str.to_re "M") (str.to_re "N") (str.to_re "P") (str.to_re "R") (str.to_re "S") (str.to_re "T") (str.to_re "V") (str.to_re "X") (str.to_re "Y") (str.to_re "a") (str.to_re "b") (str.to_re "c") (str.to_re "e") (str.to_re "g") (str.to_re "h") (str.to_re "j") (str.to_re "k") (str.to_re "l") (str.to_re "m") (str.to_re "n") (str.to_re "p") (str.to_re "r") (str.to_re "s") (str.to_re "t") (str.to_re "v") (str.to_re "x") (str.to_re "y"))) ((_ re.loop 1 1) (re.range "0" "9")) ((_ re.loop 1 1) (re.union (re.range "A" "Z") (re.range "a" "z"))) (re.opt (str.to_re " ")) ((_ re.loop 1 1) (re.range "0" "9")) ((_ re.loop 1 1) (re.union (re.range "A" "Z") (re.range "a" "z"))) ((_ re.loop 1 1) (re.range "0" "9")) (str.to_re "\u{a}")))))
(assert (not (str.in_re X (re.++ (str.to_re "/") (re.union (str.to_re "DisableSandboxAndDrop") (str.to_re "ConfusedClass") (str.to_re "FieldAccessVerifierExpl")) (str.to_re ".class/ims\u{a}")))))
(check-sat)

(exit)
